(declare-fun ExpandObjSwitcher () Real)
(declare-fun Constructed_Argument_t () String)
(declare-fun Constructed_Argument_2_t () String)
(declare-fun CreateAsClass () Bool)
(declare-fun Constructed_Argument () String)
(assert (= ExpandObjSwitcher 4.0))
(assert (= Constructed_Argument_t "string"))
(assert (not (= Constructed_Argument_2_t "string")))
(assert (not (= Constructed_Argument_2_t "number")))
(assert (not (= Constructed_Argument_2_t "boolean")))
(assert (not (= Constructed_Argument_2_t "object")))
(assert (not (= Constructed_Argument_2_t "array_number")))
(assert (not (= Constructed_Argument_2_t "array_string")))
(assert (not (= Constructed_Argument_2_t "array_bool")))
(assert (not (= Constructed_Argument_2_t "null")))
(assert (not CreateAsClass))
(assert (not (<= (to_real (str.len Constructed_Argument)) 0.0)))
(assert (not (= (to_real (str.len (str.at Constructed_Argument 0))) 1.0)))
(check-sat)
